
%FILE DATA:	Soccer Computational Problem for MiniZinc Models	%
%AUTHOR:	Jack Wall	%
%CONTACT:  	116397063@umail.ucc.ie			%
%LAST UPDATE:	02/19/2020, 12:16:33						%
%DESCRIPTION: 	80 games played with 10 games left				%


n=10; %number of teams

%Games to play
games=[|10,7|4,10|8,2|8,9|6,1|9,10|2,3|8,7|9,5|3,10|];

%Initial points
iPoints=[24,19,27,24,13,26,26,26,20,16];

%POSITION CONSTRAINTS
% [|teamID, operator, position|...]
% operators index:
%  1 for =  operator
%  2 for >  operator
%  3 for >= operator
%  4 for <  operator
%  5 for <= operator
positionConstraints=[|8,3,1|3,1,2|7,5,3|];